70 19 12 2 77 13 5 29 23 84 60 10 92 59 37 86 34 18 25 90 20 33 38 22 48 95 83 98 71 74 72 14 73 53 40 94 88 80 82 21 35 85 15 9 56 43 31 27 93 7 58 6 17 1 41 97 26 4 79 68 89 54 45 44 32 87 8 51 36 57 69 50 96 24 42 49 55 39 61 76 46 64 91 16 63 65 99 62 75 67 0 52 30 3 66 28 11 81 47 78 

